Problem:    knapsack_continous_300_glpk
Rows:       2
Columns:    300
Non-zeros:  600
Status:     OPTIMAL
Objective:  z = 32700.41689 (MAXimum)

   No.   Row name   St   Activity     Lower bound   Upper bound    Marginal
------ ------------ -- ------------- ------------- ------------- -------------
     1 z            B        32700.4                             
     2 Weight       NU       11603.3                     11603.3      0.550341 

   No. Column name  St   Activity     Lower bound   Upper bound    Marginal
------ ------------ -- ------------- ------------- ------------- -------------
     1 x0           NU             1             0             1       81.6618 
     2 x1           NL             0             0             1      -105.625 
     3 x2           NU             1             0             1       178.102 
     4 x3           NL             0             0             1       -14.362 
     5 x4           NU             1             0             1       195.147 
     6 x5           NU             1             0             1        87.505 
     7 x6           NU             1             0             1       100.603 
     8 x7           NU             1             0             1       191.202 
     9 x8           NU             1             0             1       30.5073 
    10 x9           NU             1             0             1       148.226 
    11 x10          NL             0             0             1      -12.5869 
    12 x11          NU             1             0             1       20.6733 
    13 x12          NL             0             0             1      -35.8249 
    14 x13          NL             0             0             1      -50.7178 
    15 x14          NL             0             0             1      -19.8035 
    16 x15          NU             1             0             1       33.1481 
    17 x16          NU             1             0             1       42.7283 
    18 x17          NU             1             0             1       61.2376 
    19 x18          NU             1             0             1       135.869 
    20 x19          NU             1             0             1       82.5929 
    21 x20          NL             0             0             1      -65.7069 
    22 x21          NU             1             0             1       43.3479 
    23 x22          NU             1             0             1       8.32508 
    24 x23          NL             0             0             1      -77.6296 
    25 x24          B       0.739136             0             1 
    26 x25          NU             1             0             1       209.462 
    27 x26          NU             1             0             1       155.907 
    28 x27          NU             1             0             1       178.011 
    29 x28          NU             1             0             1       91.8012 
    30 x29          NU             1             0             1       266.585 
    31 x30          NU             1             0             1       80.3328 
    32 x31          NL             0             0             1      -2.03503 
    33 x32          NL             0             0             1      -57.9909 
    34 x33          NU             1             0             1        144.84 
    35 x34          NU             1             0             1       75.7525 
    36 x35          NU             1             0             1       160.084 
    37 x36          NU             1             0             1       123.711 
    38 x37          NU             1             0             1       19.7778 
    39 x38          NU             1             0             1       183.592 
    40 x39          NU             1             0             1        96.475 
    41 x40          NU             1             0             1       32.7916 
    42 x41          NL             0             0             1      -4.13894 
    43 x42          NU             1             0             1       41.3659 
    44 x43          NU             1             0             1       121.097 
    45 x44          NU             1             0             1       116.028 
    46 x45          NU             1             0             1       122.323 
    47 x46          NU             1             0             1       106.626 
    48 x47          NL             0             0             1       -112.43 
    49 x48          NL             0             0             1      -107.475 
    50 x49          NU             1             0             1       96.4164 
    51 x50          NL             0             0             1      -10.0585 
    52 x51          NU             1             0             1       129.055 
    53 x52          NU             1             0             1       55.4175 
    54 x53          NU             1             0             1       57.7485 
    55 x54          NU             1             0             1       8.59549 
    56 x55          NU             1             0             1        106.13 
    57 x56          NU             1             0             1        6.1632 
    58 x57          NU             1             0             1       164.417 
    59 x58          NU             1             0             1       117.788 
    60 x59          NL             0             0             1      -60.9235 
    61 x60          NU             1             0             1       32.1945 
    62 x61          NL             0             0             1      -16.1183 
    63 x62          NL             0             0             1      -120.974 
    64 x63          NL             0             0             1      -81.2105 
    65 x64          NU             1             0             1       132.318 
    66 x65          NU             1             0             1       203.271 
    67 x66          NL             0             0             1      -13.9913 
    68 x67          NL             0             0             1       -28.908 
    69 x68          NU             1             0             1       7.49962 
    70 x69          NU             1             0             1        178.32 
    71 x70          NU             1             0             1        61.398 
    72 x71          NL             0             0             1      -40.2046 
    73 x72          NU             1             0             1       43.4986 
    74 x73          NU             1             0             1       198.967 
    75 x74          NU             1             0             1       227.516 
    76 x75          NU             1             0             1       61.4143 
    77 x76          NU             1             0             1       18.6897 
    78 x77          NU             1             0             1       146.276 
    79 x78          NL             0             0             1      -2.70613 
    80 x79          NU             1             0             1       233.907 
    81 x80          NU             1             0             1       252.449 
    82 x81          NU             1             0             1       127.829 
    83 x82          NU             1             0             1       150.557 
    84 x83          NL             0             0             1      -39.0061 
    85 x84          NU             1             0             1        69.995 
    86 x85          NU             1             0             1       46.0583 
    87 x86          NU             1             0             1        211.69 
    88 x87          NU             1             0             1       152.087 
    89 x88          NU             1             0             1       119.494 
    90 x89          NL             0             0             1      -7.05013 
    91 x90          NL             0             0             1      -25.6039 
    92 x91          NU             1             0             1       117.777 
    93 x92          NU             1             0             1       158.931 
    94 x93          NU             1             0             1       65.0666 
    95 x94          NU             1             0             1       40.3214 
    96 x95          NU             1             0             1       57.3273 
    97 x96          NU             1             0             1       81.2775 
    98 x97          NU             1             0             1       179.401 
    99 x98          NU             1             0             1       49.7519 
   100 x99          NL             0             0             1      -47.3077 
   101 x100         NL             0             0             1      -61.9552 
   102 x101         NU             1             0             1       204.321 
   103 x102         NU             1             0             1        122.68 
   104 x103         NU             1             0             1       65.7372 
   105 x104         NU             1             0             1       197.981 
   106 x105         NU             1             0             1       46.2235 
   107 x106         NU             1             0             1       129.551 
   108 x107         NU             1             0             1        98.075 
   109 x108         NU             1             0             1       192.271 
   110 x109         NU             1             0             1       45.1841 
   111 x110         NL             0             0             1      -11.5795 
   112 x111         NU             1             0             1       26.7725 
   113 x112         NU             1             0             1       182.463 
   114 x113         NU             1             0             1        110.58 
   115 x114         NU             1             0             1       89.9214 
   116 x115         NU             1             0             1       99.2171 
   117 x116         NU             1             0             1       117.157 
   118 x117         NU             1             0             1        38.664 
   119 x118         NL             0             0             1      -55.9833 
   120 x119         NU             1             0             1       33.4128 
   121 x120         NU             1             0             1       37.9244 
   122 x121         NU             1             0             1       16.1771 
   123 x122         NU             1             0             1       133.555 
   124 x123         NU             1             0             1       41.2281 
   125 x124         NU             1             0             1       281.459 
   126 x125         NU             1             0             1       71.6134 
   127 x126         NL             0             0             1      -2.20074 
   128 x127         NU             1             0             1       109.666 
   129 x128         NL             0             0             1      -113.482 
   130 x129         NU             1             0             1       9.85455 
   131 x130         NU             1             0             1       163.961 
   132 x131         NL             0             0             1      -14.4354 
   133 x132         NU             1             0             1       103.827 
   134 x133         NU             1             0             1       190.126 
   135 x134         NU             1             0             1       149.947 
   136 x135         NU             1             0             1        28.415 
   137 x136         NU             1             0             1       12.8904 
   138 x137         NU             1             0             1       69.9807 
   139 x138         NU             1             0             1       252.427 
   140 x139         NU             1             0             1       158.003 
   141 x140         NU             1             0             1       233.961 
   142 x141         NU             1             0             1       27.0507 
   143 x142         NU             1             0             1       8.05207 
   144 x143         NU             1             0             1       113.108 
   145 x144         NU             1             0             1       50.7425 
   146 x145         NL             0             0             1      -35.6164 
   147 x146         NU             1             0             1       40.3022 
   148 x147         NU             1             0             1       122.496 
   149 x148         NL             0             0             1      -94.7611 
   150 x149         NL             0             0             1      -70.9322 
   151 x150         NU             1             0             1        242.57 
   152 x151         NU             1             0             1       132.713 
   153 x152         NU             1             0             1           158 
   154 x153         NU             1             0             1       28.8132 
   155 x154         NU             1             0             1       179.079 
   156 x155         NU             1             0             1       252.201 
   157 x156         NU             1             0             1       151.716 
   158 x157         NU             1             0             1       21.6934 
   159 x158         NU             1             0             1       158.573 
   160 x159         NU             1             0             1       141.294 
   161 x160         NU             1             0             1       133.412 
   162 x161         NU             1             0             1         278.7 
   163 x162         NL             0             0             1      -9.91157 
   164 x163         NU             1             0             1       23.5863 
   165 x164         NU             1             0             1       258.708 
   166 x165         NU             1             0             1       8.76032 
   167 x166         NL             0             0             1      -72.3322 
   168 x167         NU             1             0             1       39.5303 
   169 x168         NU             1             0             1       216.765 
   170 x169         NU             1             0             1       87.5055 
   171 x170         NU             1             0             1       203.653 
   172 x171         NU             1             0             1       120.512 
   173 x172         NL             0             0             1      -43.8968 
   174 x173         NU             1             0             1       156.509 
   175 x174         NL             0             0             1       -6.3341 
   176 x175         NU             1             0             1       99.5601 
   177 x176         NU             1             0             1       66.1032 
   178 x177         NU             1             0             1       144.237 
   179 x178         NU             1             0             1       34.7844 
   180 x179         NU             1             0             1       113.728 
   181 x180         NU             1             0             1        173.03 
   182 x181         NL             0             0             1      -36.2671 
   183 x182         NL             0             0             1      -27.9418 
   184 x183         NU             1             0             1       30.0632 
   185 x184         NL             0             0             1      -115.697 
   186 x185         NL             0             0             1      -32.6306 
   187 x186         NU             1             0             1       119.689 
   188 x187         NU             1             0             1       147.407 
   189 x188         NU             1             0             1       59.9874 
   190 x189         NU             1             0             1       178.702 
   191 x190         NU             1             0             1       4.11394 
   192 x191         NL             0             0             1      -7.29783 
   193 x192         NU             1             0             1       128.958 
   194 x193         NU             1             0             1       144.479 
   195 x194         NU             1             0             1       146.137 
   196 x195         NU             1             0             1       67.3135 
   197 x196         NU             1             0             1       42.3288 
   198 x197         NL             0             0             1      -23.7322 
   199 x198         NU             1             0             1       169.514 
   200 x199         NU             1             0             1        194.13 
   201 x200         NL             0             0             1      -30.6017 
   202 x201         NU             1             0             1       187.134 
   203 x202         NU             1             0             1       160.868 
   204 x203         NU             1             0             1       46.1646 
   205 x204         NL             0             0             1      -42.3915 
   206 x205         NL             0             0             1      -58.4029 
   207 x206         NU             1             0             1       152.505 
   208 x207         NU             1             0             1       196.077 
   209 x208         NL             0             0             1     -0.593289 
   210 x209         NU             1             0             1       168.444 
   211 x210         NU             1             0             1       100.622 
   212 x211         NU             1             0             1       162.114 
   213 x212         NU             1             0             1       177.112 
   214 x213         NU             1             0             1       153.708 
   215 x214         NU             1             0             1       234.574 
   216 x215         NU             1             0             1       15.9897 
   217 x216         NU             1             0             1        130.21 
   218 x217         NU             1             0             1       149.682 
   219 x218         NU             1             0             1       137.582 
   220 x219         NU             1             0             1       184.857 
   221 x220         NU             1             0             1       156.511 
   222 x221         NU             1             0             1       203.705 
   223 x222         NU             1             0             1       227.678 
   224 x223         NU             1             0             1       34.4319 
   225 x224         NU             1             0             1       231.233 
   226 x225         NU             1             0             1       115.421 
   227 x226         NU             1             0             1       207.792 
   228 x227         NU             1             0             1       125.835 
   229 x228         NU             1             0             1       142.436 
   230 x229         NU             1             0             1       100.656 
   231 x230         NL             0             0             1      -7.29863 
   232 x231         NU             1             0             1        10.286 
   233 x232         NU             1             0             1       98.7716 
   234 x233         NL             0             0             1      -5.05624 
   235 x234         NU             1             0             1       70.8646 
   236 x235         NU             1             0             1       254.673 
   237 x236         NU             1             0             1       145.067 
   238 x237         NU             1             0             1       7.09654 
   239 x238         NL             0             0             1      -10.7554 
   240 x239         NL             0             0             1      -112.907 
   241 x240         NU             1             0             1       166.824 
   242 x241         NU             1             0             1       107.923 
   243 x242         NU             1             0             1       144.885 
   244 x243         NU             1             0             1       110.956 
   245 x244         NL             0             0             1      -34.5712 
   246 x245         NU             1             0             1       77.0657 
   247 x246         NU             1             0             1        185.92 
   248 x247         NU             1             0             1       145.865 
   249 x248         NU             1             0             1        131.45 
   250 x249         NL             0             0             1      -30.0823 
   251 x250         NU             1             0             1       7.21108 
   252 x251         NU             1             0             1       137.716 
   253 x252         NU             1             0             1       6.92395 
   254 x253         NU             1             0             1       203.815 
   255 x254         NL             0             0             1      -15.5474 
   256 x255         NU             1             0             1       238.912 
   257 x256         NL             0             0             1      -109.904 
   258 x257         NL             0             0             1      -24.7833 
   259 x258         NU             1             0             1       122.449 
   260 x259         NU             1             0             1       88.5719 
   261 x260         NU             1             0             1       109.707 
   262 x261         NU             1             0             1       10.4807 
   263 x262         NU             1             0             1       167.175 
   264 x263         NU             1             0             1       61.4502 
   265 x264         NL             0             0             1      -28.4241 
   266 x265         NL             0             0             1      -7.62861 
   267 x266         NU             1             0             1       15.3071 
   268 x267         NL             0             0             1      -52.8341 
   269 x268         NL             0             0             1       -90.433 
   270 x269         NU             1             0             1       67.0706 
   271 x270         NL             0             0             1       -48.626 
   272 x271         NL             0             0             1       -28.827 
   273 x272         NL             0             0             1      -28.2591 
   274 x273         NU             1             0             1       100.605 
   275 x274         NU             1             0             1       159.584 
   276 x275         NL             0             0             1      -3.80897 
   277 x276         NU             1             0             1       104.774 
   278 x277         NU             1             0             1       57.8317 
   279 x278         NU             1             0             1         38.42 
   280 x279         NU             1             0             1       176.722 
   281 x280         NU             1             0             1       73.3685 
   282 x281         NU             1             0             1       151.172 
   283 x282         NU             1             0             1        85.039 
   284 x283         NU             1             0             1       1.43912 
   285 x284         NU             1             0             1       28.1667 
   286 x285         NL             0             0             1      -48.9784 
   287 x286         NU             1             0             1        73.756 
   288 x287         NU             1             0             1       140.442 
   289 x288         NU             1             0             1       102.187 
   290 x289         NU             1             0             1       133.987 
   291 x290         NU             1             0             1       186.324 
   292 x291         NU             1             0             1       1.76714 
   293 x292         NU             1             0             1       105.487 
   294 x293         NU             1             0             1       159.785 
   295 x294         NU             1             0             1        168.26 
   296 x295         NU             1             0             1       113.795 
   297 x296         NL             0             0             1      -61.7848 
   298 x297         NL             0             0             1      -75.3719 
   299 x298         NL             0             0             1      -117.948 
   300 x299         NU             1             0             1       133.977 

Karush-Kuhn-Tucker optimality conditions:

KKT.PE: max.abs.err = 3.64e-12 on row 2
        max.rel.err = 1.57e-16 on row 2
        High quality

KKT.PB: max.abs.err = 0.00e+00 on row 0
        max.rel.err = 0.00e+00 on row 0
        High quality

KKT.DE: max.abs.err = 5.51e-14 on column 125
        max.rel.err = 6.16e-15 on column 247
        High quality

KKT.DB: max.abs.err = 0.00e+00 on row 0
        max.rel.err = 0.00e+00 on row 0
        High quality

End of output
